561485 14901.9
65278.4 454323
541960 32949.4
6562.2 554546
245006 322968
265739 302303
204021 350891
358255 231373
376735 159187
133833 410869
498694 76035.4
455506 113742
486663 82847.3
227640 328797
482726 86141.7
549944 23361.5
152627 395735
386411 148396
48927.2 519098
457360 100702
431906 120105
173916 370693
325621 241505
400775 143039
528384 34471
285095 271801
245531 305371
191282 366442
115779 429891
64331.1 472514
110669 432772
56068.8 484443
556890 23361.5
520616 44334
32327.5 525517
182275 369434
18775.8 526298
124267 426718
329315 240401
498737 59613.7
358952 211344
125794 417915
11974.2 536575
195949 362892
108378 436335
471328 87840.7
302061 250013
411307 134662
516461 45813.2
460419 99629.4
316581 243789
461783 95499.9
358945 222028
